
Gurobi 9.1.1 (mac64, gurobi_cl) logging started Fri Mar  5 13:31:52 2021

Academic license - for non-commercial use only - expires 2021-04-06
Using license file /Users/agnese/gurobi.lic
Set parameter LogFile to value gurobi.log

Gurobi Optimizer version 9.1.1 build v9.1.1rc0 (mac64)
Copyright (c) 2020, Gurobi Optimization, LLC

Read LP format model from file /Users/agnese/Documents/KTH-Work/GitHub_repositories/KTH-dESA/GLUCOSE/results/FINAL_2060/4.2_2Degree/HPnewlimit/gurobi/GLUCOSE_4.Final2DEGREE+HPnewlimit.lp
Reading time = 4.27 seconds
cost: 1097475 rows, 1087932 columns, 1788665 nonzeros
Thread count: 2 physical cores, 4 logical processors, using up to 4 threads
Optimize a model with 1097475 rows, 1087932 columns and 1788665 nonzeros
Model fingerprint: 0xf652917f
Coefficient statistics:
  Matrix range     [2e-08, 4e+11]
  Objective range  [7e-08, 4e+11]
  Bounds range     [0e+00, 0e+00]
  RHS range        [1e-04, 1e+06]
Warning: Model contains large matrix coefficient range
Warning: Model contains large objective coefficients
         Consider reformulating model or setting NumericFocus parameter
         to avoid numerical issues.

Concurrent LP optimizer: dual simplex and barrier
Showing barrier log only...

Presolve removed 1071650 rows and 1069635 columns
Presolve time: 1.56s
Presolved: 25825 rows, 18541 columns, 354111 nonzeros

Ordering time: 0.68s

Barrier statistics:
 AA' NZ     : 1.307e+06
 Factor NZ  : 7.144e+06 (roughly 80 MBytes of memory)
 Factor Ops : 5.291e+09 (less than 1 second per iteration)
 Threads    : 1

                  Objective                Residual
Iter       Primal          Dual         Primal    Dual     Compl     Time
   0   1.33157250e+21 -3.84958619e+17  2.46e+09 2.08e+12  9.26e+16     3s
   1   7.16767212e+20 -5.25655465e+17  2.42e+09 1.98e+12  9.03e+16     4s
   2   7.01638996e+20 -9.20991998e+17  1.81e+09 1.77e+12  7.38e+16     4s
   3   3.19292551e+20 -3.38824729e+18  7.37e+08 7.27e+11  3.73e+16     5s
   4   1.13386546e+20 -4.65169273e+18  2.32e+08 9.68e+10  1.31e+16     5s
   5   8.62892835e+18 -3.98550844e+18  1.73e+07 3.69e-03  1.09e+15     6s
   6   1.69238362e+18 -2.55270346e+18  3.45e+06 1.95e-03  2.43e+14     6s
   7   8.57406329e+17 -1.92946086e+18  1.78e+06 1.59e-03  1.34e+14     7s
   8   3.82672792e+17 -1.63207349e+18  8.77e+05 9.39e-04  7.81e+13     8s
   9   1.09811342e+17 -9.95064472e+17  2.53e+05 5.88e-04  3.25e+13     8s
  10   2.86744067e+16 -2.66630927e+17  6.48e+04 1.63e-03  8.52e+12     9s
  11   6.31969058e+15 -5.29448872e+16  1.32e+04 5.99e-03  1.78e+12     9s
  12   3.24214411e+15 -1.94240081e+16  6.66e+03 6.36e-03  7.41e+11    10s
  13   7.32456290e+14 -6.10606840e+15  1.44e+03 5.00e-03  2.00e+11    11s
  14   1.90192983e+14 -1.70750466e+15  3.30e+02 5.89e-03  5.15e+10    11s
  15   1.27693263e+14 -7.99608034e+14  2.23e+02 6.91e-03  2.63e+10    12s
  16   3.20433920e+13 -3.03298249e+14  2.52e+01 3.61e-03  8.06e+09    13s
  17   1.35639632e+13 -1.92206444e+14  5.07e+00 2.39e-03  4.64e+09    13s
  18   6.99542101e+12 -1.08473520e+14  2.73e+00 1.22e-03  2.53e+09    14s
  19   3.26039532e+11 -1.75338698e+13  7.44e-02 2.21e-03  3.66e+08    14s
  20   2.62900104e+10 -9.62523777e+11  1.05e-08 4.20e-04  2.01e+07    15s
  21   7.67322659e+09 -8.17780902e+10  1.01e-08 2.44e-04  1.82e+06    16s
  22   4.29058439e+09 -1.10706444e+10  4.17e-09 4.88e-04  3.13e+05    16s
  23   3.03416477e+09 -1.16435891e+09  2.27e-09 4.88e-04  8.56e+04    17s
  24   2.19044467e+09  4.63306881e+08  3.08e-09 2.44e-04  3.52e+04    17s
  25   1.73188291e+09  1.34655497e+09  1.03e-08 4.88e-04  7.85e+03    18s
  26   1.62361039e+09  1.48406777e+09  1.40e-08 4.88e-04  2.84e+03    19s
  27   1.59760847e+09  1.57086734e+09  1.69e-08 2.44e-04  5.45e+02    19s
  28   1.58269746e+09  1.58148524e+09  6.33e-09 2.44e-04  2.47e+01    20s
  29   1.58224749e+09  1.58197594e+09  1.05e-08 2.44e-04  5.53e+00    21s
  30   1.58219798e+09  1.58212133e+09  1.42e-08 2.44e-04  1.56e+00    22s
  31   1.58218245e+09  1.58213882e+09  2.33e-07 2.44e-04  8.89e-01    22s
  32   1.58216949e+09  1.58214836e+09  1.98e-07 4.88e-04  4.31e-01    23s
  33   1.58216077e+09  1.58215061e+09  2.60e-07 2.44e-04  2.07e-01    24s
  34   1.58215861e+09  1.58215190e+09  1.86e-07 2.44e-04  1.37e-01    24s
  35   1.58215629e+09  1.58215255e+09  1.07e-07 2.44e-04  7.63e-02    25s
  36   1.58215488e+09  1.58215287e+09  5.79e-08 2.44e-04  4.11e-02    25s
  37   1.58215359e+09  1.58215318e+09  6.53e-08 2.44e-04  8.51e-03    26s
  38   1.58215346e+09  1.58215329e+09  3.09e-08 2.44e-04  3.66e-03    27s
  39   1.58215335e+09  1.58215333e+09  1.30e-08 4.88e-04  3.22e-04    28s
  40   1.58215334e+09  1.58215333e+09  3.46e-08 2.44e-04  1.35e-04    28s
  41   1.58215334e+09  1.58215334e+09  2.52e-08 4.88e-04  3.15e-05    29s
  42   1.58215334e+09  1.58215334e+09  2.73e-07 2.44e-04  2.36e-06    30s
  43   1.58215334e+09  1.58215334e+09  1.71e-07 2.44e-04  1.27e-06    30s

Barrier solved model in 43 iterations and 30.25 seconds
Optimal objective 1.58215334e+09

Crossover log...

    6907 DPushes remaining with DInf 0.0000000e+00                30s
       0 DPushes remaining with DInf 0.0000000e+00                31s

    8384 PPushes remaining with PInf 2.3775011e-02                31s
       3 PPushes remaining with PInf 2.8060375e-02                31s

  Push phase complete: Pinf 2.8060375e-02, Dinf 2.0918780e+04     31s

Iteration    Objective       Primal Inf.    Dual Inf.      Time
   12208    1.5821533e+09   0.000000e+00   2.091878e+04     31s
Extra simplex iterations after uncrush: 14
   13108    1.5821533e+09   0.000000e+00   0.000000e+00     34s

Solved with barrier
Solved in 13108 iterations and 34.00 seconds
Optimal objective  1.582153337e+09

No IIS available for current model
Wrote result file 'results_gurobi.sol'

